c random formula
p cnf 10 70
9 1 -3 0
3 -4 8 0
-6 -9 8 0
-7 -9 -6 0
3 1 8 0
10 -6 -1 0
-8 1 -10 0
10 7 -6 0
-5 10 8 0
8 9 1 0
-9 10 8 0
10 2 -5 0
-10 9 -2 0
8 -6 -10 0
3 2 -4 0
3 -4 10 0
4 -9 1 0
2 -6 7 0
-5 -3 6 0
-6 -1 4 0
-8 -4 -9 0
4 7 -5 0
-2 9 7 0
-2 -4 -9 0
-5 8 -4 0
8 -10 -3 0
-1 7 -2 0
2 1 -5 0
-1 5 -6 0
5 -6 -7 0
3 8 10 0
4 -2 7 0
-5 7 -8 0
10 -3 -8 0
-10 -8 7 0
-10 -6 -9 0
-10 8 -6 0
4 -6 -10 0
-2 -8 -3 0
-5 -4 -1 0
-8 -7 4 0
-3 -10 -8 0
-3 4 1 0
-1 -3 -4 0
10 -9 -2 0
-7 -2 5 0
-3 -6 8 0
-10 -2 -1 0
10 -8 -3 0
10 -2 6 0
-10 -9 -5 0
4 -3 -6 0
-1 3 -2 0
-2 -6 7 0
9 4 -8 0
-2 9 -6 0
-1 5 -7 0
1 4 8 0
-4 -1 -10 0
4 1 10 0
10 9 1 0
3 4 7 0
-2 5 1 0
7 5 8 0
-2 1 6 0
6 2 5 0
-5 -9 2 0
-9 4 6 0
1 -4 3 0
-10 -5 -7 0
